c A SAT instance generated from a 3-CNF formula that had 32 clauses and 8 variables
p cnf 8 32
-1 3 5 0
2 -4 -5 0
7 -1 -4 0
-2 -4 -8 0
-6 8 -5 0
1 -3 2 0
6 -2 1 0
4 -6 1 0
5 3 -4 0
-7 -4 2 0
6 8 -2 0
2 -4 5 0
-1 6 -2 0
5 1 -2 0
-8 -2 7 0
-5 -4 8 0
-8 4 -3 0
-2 1 -8 0
8 1 -2 0
7 -1 -2 0
-7 8 3 0
-8 5 4 0
7 -3 4 0
6 4 7 0
-8 5 2 0
-8 6 -3 0
8 -2 5 0
-1 -2 4 0
-3 5 6 0
-5 2 7 0
-8 4 7 0
7 2 -8 0
